1 -1 -2 0
1 1 -3 0
1 1 4 0
1 1 5 0
1 6 -4 0
1 -6 -5 0
1 7 8 0
1 -7 9 0
1 7 -10 0
1 -7 -2 0
1 -7 11 0
1 -7 12 0
1 7 -4 0
1 -7 5 0
1 10 -9 0
1 10 13 0
1 -10 -2 0
1 -10 3 0
1 10 -11 0
1 -10 7 0
1 10 -4 0
1 10 -5 0
1 3 14 0
1 3 15 0
1 -3 10 0
1 -3 -6 0
1 -3 16 0
1 3 -17 0
1 3 -7 0
1 3 -5 0
1 -5 18 0
1 -5 -19 0
1 -5 14 0
1 5 -3 0
1 5 20 0
1 5 -17 0
1 5 21 0
1 2 -19 0
1 2 -20 0
1 2 -22 0
1 2 -23 0
1 -2 7 0
1 2 4 0
1 -4 24 0
1 -4 10 0
1 4 -6 0
1 -4 2 0
1 -4 -22 0
1 -4 23 0
1 4 7 0
1 4 1 0
1 -4 -25 0
1 -21 8 0
1 21 -9 0
1 -21 15 0
1 21 26 0
1 15 8 0
1 -15 -9 0
1 15 26 0
1 -15 5 0
1 -17 9 0
1 17 27 0
1 17 3 0
1 -17 -11 0
1 17 26 0
1 -17 -28 0
1 17 5 0
1 14 8 0
1 -14 9 0
1 -14 -3 0
1 14 29 0
1 -26 -30 0
1 26 15 0
1 26 -10 0
1 26 -31 0
1 26 -32 0
1 -26 -33 0
1 -26 -21 0
1 26 7 0
1 26 34 0
1 -9 -35 0
1 9 36 0
1 9 14 0
1 -9 15 0
1 9 -10 0
1 9 32 0
1 9 -34 0
1 -11 -37 0
1 11 -10 0
1 -11 -31 0
1 -11 38 0
1 11 -39 0
1 11 -20 0
1 -11 17 0
1 -11 -21 0
1 -8 37 0
1 -8 -40 0
1 8 19 0
1 8 -15 0
1 -8 -10 0
1 8 -38 0
1 -8 17 0
1 -8 -21 0
1 8 -7 0
1 -33 -35 0
1 33 -9 0
1 33 41 0
1 -33 -27 0
1 33 -26 0
1 -35 -27 0
1 35 -33 0
1 -35 26 0
1 35 29 0
1 -32 -30 0
1 -32 -9 0
1 -32 -41 0
1 -32 -29 0
1 32 -28 0
1 -30 -41 0
1 30 27 0
1 30 -32 0
1 -30 29 0
1 30 -28 0
1 28 30 0
1 -28 14 0
1 -28 27 0
1 28 -42 0
1 -28 -32 0
1 28 -33 0
1 28 -17 0
1 -28 -43 0
1 28 -44 0
1 27 -45 0
1 27 -32 0
1 27 -33 0
1 27 44 0
1 29 35 0
1 -29 -41 0
1 -29 -42 0
1 29 31 0
1 29 -32 0
1 29 17 0
1 29 46 0
1 -29 44 0
1 29 47 0
1 -41 -35 0
1 -41 14 0
1 -41 -48 0
1 -41 42 0
1 41 49 0
1 41 31 0
1 41 32 0
1 -41 29 0
1 41 44 0
1 -41 47 0
1 41 34 0
1 50 -51 0
1 -50 52 0
1 50 53 0
1 50 -1 0
1 50 -54 0
1 55 -56 0
1 -55 -6 0
1 -55 -57 0
1 55 -53 0
1 12 56 0
1 12 -51 0
1 12 58 0
1 12 -59 0
1 -12 -52 0
1 12 60 0
1 -12 61 0
1 -13 -56 0
1 -13 -51 0
1 -13 58 0
1 13 59 0
1 -13 -53 0
1 -13 61 0
1 13 -12 0
1 51 62 0
1 -51 -24 0
1 -51 -63 0
1 51 64 0
1 -51 -13 0
1 51 65 0
1 -51 22 0
1 51 -12 0
1 -53 -62 0
1 53 55 0
1 -53 65 0
1 -53 22 0
1 53 23 0
1 -53 -12 0
1 -56 -66 0
1 -56 67 0
1 -56 -13 0
1 -56 -55 0
1 56 -52 0
1 -56 -65 0
1 -56 -68 0
1 -56 50 0
1 52 67 0
1 -52 13 0
1 -52 69 0
1 -52 -65 0
1 -52 -68 0
1 -52 -70 0
1 -52 12 0
1 -52 -50 0
1 23 51 0
1 23 58 0
1 -23 -59 0
1 -23 -60 0
1 -23 61 0
1 -23 21 0
1 -23 70 0
1 -23 -4 0
1 -64 -51 0
1 64 -58 0
1 -64 15 0
1 64 -59 0
1 -64 67 0
1 -64 -2 0
1 -64 -53 0
1 64 -60 0
1 22 58 0
1 22 -71 0
1 22 -72 0
1 -22 -53 0
1 22 -60 0
1 -22 -68 0
1 -22 4 0
1 -24 51 0
1 -24 73 0
1 24 -71 0
1 -24 -22 0
1 24 74 0
1 24 -75 0
1 59 76 0
1 -59 61 0
1 -59 37 0
1 -59 -24 0
1 -59 38 0
1 59 -22 0
1 59 -23 0
1 -59 -12 0
1 -61 24 0
1 61 64 0
1 -61 38 0
1 -61 23 0
1 -61 12 0
1 58 -76 0
1 58 -77 0
1 -58 24 0
1 -58 -64 0
1 -58 -78 0
1 -58 -79 0
1 58 -60 0
1 58 65 0
1 60 77 0
1 -60 62 0
1 60 58 0
1 60 -65 0
1 60 -23 0
1 60 -12 0
1 -20 -8 0
1 -20 59 0
1 -20 2 0
1 20 3 0
1 -20 -11 0
1 -20 33 0
1 -20 -65 0
1 20 61 0
1 20 74 0
1 20 75 0
1 -20 -4 0
1 20 -5 0
1 -19 -8 0
1 -19 35 0
1 -19 59 0
1 19 71 0
1 19 -72 0
1 19 2 0
1 -19 3 0
1 19 20 0
1 -19 74 0
1 -19 -5 0
1 38 8 0
1 38 -71 0
1 38 80 0
1 -38 -11 0
1 -38 -32 0
1 -38 -79 0
1 -38 61 0
1 38 -74 0
1 38 25 0
1 37 18 0
1 37 -8 0
1 -37 -77 0
1 37 59 0
1 -37 72 0
1 -37 -80 0
1 37 -38 0
1 37 -75 0
1 -37 25 0
1 -72 -81 0
1 -72 49 0
1 -72 82 0
1 72 -31 0
1 72 20 0
1 72 22 0
1 -75 37 0
1 75 72 0
1 -75 -81 0
1 75 -31 0
1 75 83 0
1 -75 -38 0
1 75 -22 0
1 75 -84 0
1 -71 -37 0
1 -71 19 0
1 71 24 0
1 71 85 0
1 71 -78 0
1 -71 38 0
1 71 20 0
1 -71 -22 0
1 -71 74 0
1 71 86 0
1 -74 -19 0
1 74 24 0
1 -74 -78 0
1 -74 20 0
1 -74 -22 0
1 -74 -87 0
1 -74 86 0
1 31 -8 0
1 31 72 0
1 -31 80 0
1 31 -78 0
1 31 11 0
1 31 -16 0
1 -31 26 0
1 31 75 0
1 31 -25 0
1 -34 -8 0
1 34 9 0
1 -34 -72 0
1 34 80 0
1 34 31 0
1 -34 -16 0
1 34 11 0
1 34 26 0
1 -34 -29 0
1 34 -75 0
1 -34 -25 0
1 -49 40 0
1 -49 36 0
1 -49 41 0
1 -49 -72 0
1 -49 85 0
1 -49 -80 0
1 -49 -16 0
1 49 88 0
1 49 75 0
1 -49 -25 0
1 -47 -18 0
1 -47 40 0
1 -47 36 0
1 47 41 0
1 47 -72 0
1 47 -49 0
1 -47 -39 0
1 -47 -88 0
1 47 -29 0
1 -47 -75 0
1 -47 86 0
1 -16 -37 0
1 -16 49 0
1 -16 31 0
1 -16 89 0
1 16 -38 0
1 -16 -90 0
1 16 -47 0
1 16 34 0
1 18 -91 0
1 -18 -92 0
1 -18 -93 0
1 18 42 0
1 -18 -49 0
1 18 31 0
1 -18 16 0
1 18 -38 0
1 18 44 0
1 -18 47 0
1 18 34 0
1 80 2 0
1 -80 94 0
1 80 90 0
1 80 84 0
1 -80 25 0
1 25 -92 0
1 25 -95 0
1 25 -81 0
1 25 80 0
1 -25 4 0
1 -25 -96 0
1 -25 84 0
1 25 -47 0
1 -25 34 0
1 -42 -40 0
1 -42 36 0
1 42 -27 0
1 -42 -81 0
1 -42 -16 0
1 42 -29 0
1 -42 28 0
1 -42 -44 0
1 44 40 0
1 44 -36 0
1 -44 -42 0
1 44 16 0
1 44 39 0
1 -44 88 0
1 44 -29 0
1 44 -28 0
1 -44 -84 0
1 -93 -18 0
1 93 -36 0
1 93 -48 0
1 93 16 0
1 93 39 0
1 -97 18 0
1 97 40 0
1 -97 -48 0
1 -97 45 0
1 97 16 0
1 -97 -96 0
1 -88 98 0
1 -88 -36 0
1 -88 42 0
1 -88 49 0
1 -88 99 0
1 88 -26 0
1 88 -100 0
1 88 101 0
1 -88 -97 0
1 36 -9 0
1 36 98 0
1 36 -102 0
1 36 -103 0
1 36 104 0
1 36 99 0
1 36 100 0
1 -36 -88 0
1 -36 101 0
1 -36 -97 0
1 -36 -44 0
1 -39 40 0
1 39 -98 0
1 -39 105 0
1 39 92 0
1 -39 -93 0
1 39 90 0
1 39 44 0
1 -39 -47 0
1 40 -8 0
1 -40 -98 0
1 -40 105 0
1 40 42 0
1 40 -49 0
1 40 99 0
1 40 106 0
1 40 -90 0
1 40 97 0
1 -40 44 0
1 -104 -36 0
1 -104 -48 0
1 -104 -45 0
1 -104 -92 0
1 -104 -43 0
1 101 36 0
1 101 -48 0
1 101 -104 0
1 -101 46 0
1 101 -43 0
1 103 -36 0
1 -103 105 0
1 103 -45 0
1 -103 -88 0
1 103 -46 0
1 -103 43 0
1 100 103 0
1 100 48 0
1 100 45 0
1 43 -107 0
1 -43 103 0
1 -43 -104 0
1 -43 -93 0
1 -43 108 0
1 43 -100 0
1 43 101 0
1 43 -97 0
1 -45 -107 0
1 45 -27 0
1 -45 -109 0
1 -45 93 0
1 45 -108 0
1 45 100 0
1 -45 101 0
1 45 97 0
1 -45 43 0
1 46 110 0
1 -46 98 0
1 46 -103 0
1 -46 -104 0
1 -46 93 0
1 -46 108 0
1 -46 -111 0
1 -46 -99 0
1 -46 -112 0
1 -48 107 0
1 -48 -103 0
1 48 -113 0
1 48 -93 0
1 48 108 0
1 -48 -111 0
1 48 -100 0
1 -54 114 0
1 -54 -57 0
1 -57 -115 0
1 -57 114 0
1 -57 55 0
1 -116 117 0
1 116 -118 0
1 -116 -12 0
1 116 -119 0
1 120 114 0
1 120 -13 0
1 120 119 0
1 120 121 0
1 -122 114 0
1 -122 120 0
1 122 68 0
1 -122 -70 0
1 -122 -54 0
1 114 -67 0
1 -114 -120 0
1 123 -124 0
1 123 -115 0
1 115 125 0
1 115 120 0
1 -115 -54 0
1 70 114 0
1 -70 117 0
1 -70 -118 0
1 -70 52 0
1 70 -122 0
1 70 119 0
1 67 -64 0
1 67 117 0
1 -67 119 0
1 -68 56 0
1 -68 -73 0
1 -68 117 0
1 -68 126 0
1 -68 52 0
1 -68 127 0
1 73 -56 0
1 73 122 0
1 -73 -24 0
1 -73 117 0
1 -73 -118 0
1 73 126 0
1 -73 128 0
1 73 -52 0
1 -119 -77 0
1 119 -62 0
1 119 73 0
1 -119 -67 0
1 -119 -129 0
1 -119 68 0
1 -119 70 0
1 119 116 0
1 -119 130 0
1 -118 -131 0
1 118 -77 0
1 118 -62 0
1 118 67 0
1 118 129 0
1 118 -79 0
1 118 -65 0
1 118 119 0
1 118 -68 0
1 -118 -70 0
1 -118 -116 0
1 121 -131 0
1 121 -117 0
1 121 120 0
1 121 -70 0
1 -117 -73 0
1 117 -132 0
1 117 -120 0
1 117 -70 0
1 117 116 0
1 -65 -133 0
1 65 56 0
1 65 51 0
1 -65 -126 0
1 -65 -52 0
1 -65 53 0
1 65 -119 0
1 -65 -127 0
1 62 -133 0
1 62 -56 0
1 -62 19 0
1 62 -58 0
1 -62 118 0
1 -62 -126 0
1 62 128 0
1 62 52 0
1 62 53 0
1 -62 127 0
1 -79 -63 0
1 -79 -58 0
1 79 -126 0
1 -79 -128 0
1 -79 69 0
1 79 -38 0
1 -79 60 0
1 79 -119 0
1 77 133 0
1 -77 -37 0
1 77 63 0
1 -77 118 0
1 -77 126 0
1 77 128 0
1 77 79 0
1 -77 -134 0
1 -77 119 0
1 -133 -135 0
1 -133 77 0
1 133 -62 0
1 -133 -73 0
1 -133 85 0
1 -133 -128 0
1 133 -78 0
1 -133 -79 0
1 133 65 0
1 133 136 0
1 133 -86 0
1 128 133 0
1 -128 -77 0
1 -128 -62 0
1 128 137 0
1 -128 -79 0
1 128 -65 0
1 128 -86 0
1 127 -131 0
1 127 -62 0
1 127 138 0
1 -127 126 0
1 -127 -137 0
1 127 -139 0
1 127 -79 0
1 127 68 0
1 127 -136 0
1 -127 140 0
1 -126 131 0
1 126 -77 0
1 126 73 0
1 -126 -137 0
1 126 -139 0
1 -126 65 0
1 126 136 0
1 126 -127 0
1 78 -76 0
1 78 133 0
1 78 -63 0
1 78 -59 0
1 78 128 0
1 78 -31 0
1 78 -129 0
1 -78 69 0
1 -78 -61 0
1 78 74 0
1 -76 131 0
1 76 58 0
1 -76 59 0
1 -76 71 0
1 -76 128 0
1 76 78 0
1 -76 -69 0
1 -76 -60 0
1 76 -61 0
1 76 74 0
1 85 -141 0
1 -85 -142 0
1 -85 -71 0
1 85 -139 0
1 85 -134 0
1 85 143 0
1 -85 86 0
1 -86 -133 0
1 86 -66 0
1 86 63 0
1 86 141 0
1 86 142 0
1 -86 -71 0
1 86 85 0
1 -86 -69 0
1 86 134 0
1 86 -144 0
1 86 -74 0
1 -86 140 0
1 63 51 0
1 -63 -145 0
1 63 -95 0
1 63 -81 0
1 -63 85 0
1 -63 79 0
1 -63 -146 0
1 63 -84 0
1 134 76 0
1 -134 77 0
1 -134 -63 0
1 134 -147 0
1 -134 -81 0
1 -134 -78 0
1 134 -148 0
1 -134 146 0
1 134 -96 0
1 134 -84 0
1 134 -86 0
1 -66 56 0
1 66 -77 0
1 -66 147 0
1 -66 -78 0
1 66 79 0
1 66 146 0
1 -66 -149 0
1 -69 76 0
1 -69 77 0
1 -69 -150 0
1 -69 78 0
1 69 -151 0
1 -69 146 0
1 69 -149 0
1 -69 -136 0
1 69 86 0
1 -81 -63 0
1 81 -71 0
1 -81 72 0
1 -81 -137 0
1 -81 -80 0
1 -81 -134 0
1 -81 -143 0
1 -81 -144 0
1 -81 -75 0
1 81 84 0
1 81 25 0
1 84 -71 0
1 84 -75 0
1 84 -80 0
1 84 -143 0
1 84 74 0
1 -84 44 0
1 84 136 0
1 84 25 0
1 -95 141 0
1 95 142 0
1 -95 152 0
1 95 -82 0
1 95 -80 0
1 95 134 0
1 95 143 0
1 -95 144 0
1 95 96 0
1 95 -83 0
1 96 -63 0
1 96 141 0
1 96 142 0
1 -96 -95 0
1 -96 -152 0
1 96 -82 0
1 96 80 0
1 -96 134 0
1 96 144 0
1 96 97 0
1 -96 87 0
1 -96 -83 0
1 -142 -144 0
1 -142 -105 0
1 -142 -59 0
1 142 -92 0
1 -142 -153 0
1 -142 -95 0
1 -142 85 0
1 -142 154 0
1 -142 -106 0
1 -142 -84 0
1 -142 86 0
1 -144 -95 0
1 144 154 0
1 144 -106 0
1 144 61 0
1 144 -90 0
1 144 155 0
1 -144 96 0
1 144 84 0
1 144 -86 0
1 -141 -156 0
1 -141 157 0
1 141 158 0
1 141 147 0
1 -141 85 0
1 -141 154 0
1 141 143 0
1 -141 96 0
1 141 -84 0
1 141 -86 0
1 143 -159 0
1 143 -141 0
1 -143 157 0
1 143 85 0
1 143 -154 0
1 -143 60 0
1 143 160 0
1 143 146 0
1 143 -96 0
1 143 86 0
1 92 18 0
1 -92 -104 0
1 -92 -142 0
1 -92 152 0
1 92 80 0
1 -92 -16 0
1 -92 -39 0
1 -92 -90 0
1 92 83 0
1 90 -18 0
1 90 -40 0
1 -90 92 0
1 -90 -142 0
1 90 -82 0
1 90 -80 0
1 90 -16 0
1 -90 101 0
1 -90 -144 0
1 -90 146 0
1 90 -87 0
1 90 -83 0
1 90 -25 0
1 105 -91 0
1 -105 -40 0
1 105 152 0
1 105 94 0
1 -105 89 0
1 -105 -87 0
1 -105 161 0
1 106 -91 0
1 -106 -40 0
1 -106 -105 0
1 106 -142 0
1 -106 82 0
1 106 94 0
1 -106 89 0
1 -106 39 0
1 106 -161 0
1 82 -162 0
1 -82 -110 0
1 82 -98 0
1 -82 105 0
1 -82 -92 0
1 -82 -111 0
1 -82 99 0
1 -82 106 0
1 -82 90 0
1 -82 96 0
1 -83 162 0
1 83 -105 0
1 83 82 0
1 83 -163 0
1 83 99 0
1 -83 -96 0
1 83 -75 0
1 -152 -164 0
1 -152 156 0
1 152 87 0
1 -152 71 0
1 -152 -95 0
1 -152 -165 0
1 152 -166 0
1 152 -154 0
1 152 90 0
1 -152 -96 0
1 87 -162 0
1 -87 105 0
1 -87 -92 0
1 87 152 0
1 87 -163 0
1 87 -154 0
1 87 90 0
1 -87 -74 0
1 87 -96 0
1 87 167 0
1 -98 91 0
1 -98 40 0
1 98 -36 0
1 98 -156 0
1 98 -48 0
1 -98 94 0
1 -98 -99 0
1 -98 -39 0
1 98 46 0
1 98 -83 0
1 -98 -161 0
1 -99 -91 0
1 -99 98 0
1 -99 36 0
1 99 94 0
1 99 -39 0
1 -99 154 0
1 -99 -88 0
1 -99 46 0
1 -99 83 0
1 99 161 0
1 110 -91 0
1 110 -168 0
1 -110 -48 0
1 -110 -82 0
1 110 94 0
1 110 111 0
1 -110 -169 0
1 110 -46 0
1 110 83 0
1 -111 -91 0
1 -111 -110 0
1 -111 82 0
1 -111 166 0
1 111 -169 0
1 -111 -170 0
1 -111 -46 0
1 -111 83 0
1 111 -161 0
1 -89 91 0
1 89 110 0
1 89 98 0
1 89 105 0
1 -89 171 0
1 -89 111 0
1 89 172 0
1 -89 -173 0
1 -91 -107 0
1 -91 -18 0
1 -91 -98 0
1 91 -105 0
1 -91 -174 0
1 -91 171 0
1 91 108 0
1 -91 -111 0
1 -91 -99 0
1 91 106 0
1 91 172 0
1 91 173 0
1 94 -162 0
1 -94 -105 0
1 -94 174 0
1 -94 175 0
1 94 -163 0
1 -94 111 0
1 -94 -99 0
1 -94 -106 0
1 -94 -172 0
1 -161 110 0
1 161 -105 0
1 161 174 0
1 -161 175 0
1 -161 -163 0
1 161 -111 0
1 161 -94 0
1 161 -99 0
1 161 -106 0
1 161 -172 0
1 161 25 0
1 -161 176 0
1 -107 91 0
1 -107 -168 0
1 -107 102 0
1 -107 -169 0
1 -107 170 0
1 -107 -43 0
1 -108 -168 0
1 -108 -102 0
1 108 48 0
1 108 -45 0
1 -108 169 0
1 -108 46 0
1 -173 -91 0
1 173 109 0
1 -173 171 0
1 173 169 0
1 173 170 0
1 173 112 0
1 -173 177 0
1 173 176 0
1 171 91 0
1 -171 168 0
1 171 102 0
1 -171 -113 0
1 -171 -175 0
1 171 112 0
1 -171 -177 0
1 171 -173 0
1 170 -102 0
1 -170 178 0
1 -170 -179 0
1 -170 108 0
1 170 -180 0
1 -170 -181 0
1 -170 -173 0
1 102 110 0
1 102 -36 0
1 102 179 0
1 102 -171 0
1 -102 108 0
1 -102 -111 0
1 -102 -170 0
1 102 173 0
1 -169 -107 0
1 -169 -182 0
1 -169 174 0
1 -169 39 0
1 -169 183 0
1 168 107 0
1 -168 -110 0
1 168 40 0
1 168 -182 0
1 -168 -171 0
1 168 -108 0
1 -168 -111 0
1 -168 173 0
1 181 -113 0
1 -181 109 0
1 181 179 0
1 181 -170 0
1 181 -112 0
1 -179 -102 0
1 -179 -109 0
1 -179 -174 0
1 179 -170 0
1 -179 -177 0
1 180 -102 0
1 180 170 0
1 -180 -112 0
1 -180 183 0
1 -178 177 0
1 178 -102 0
1 -178 -112 0
1 178 -180 0
1 -177 -178 0
1 177 -109 0
1 -177 43 0
1 -177 -173 0
1 109 -45 0
1 -109 -179 0
1 -109 171 0
1 109 -181 0
1 -112 113 0
1 -112 -179 0
1 -112 -171 0
1 -112 -46 0
1 112 180 0
1 112 -173 0
1 113 48 0
1 -113 179 0
1 -113 171 0
1 113 -112 0
1 -113 -181 0
1 113 -173 0
1 129 -125 0
1 129 -184 0
1 -129 -117 0
1 -129 -118 0
1 -129 -126 0
1 -129 185 0
1 -129 -119 0
1 -129 127 0
1 131 -184 0
1 -131 -117 0
1 -131 -129 0
1 -131 121 0
1 131 -127 0
1 -139 -184 0
1 139 -132 0
1 139 124 0
1 139 -185 0
1 139 186 0
1 -139 -130 0
1 140 -184 0
1 -140 187 0
1 140 -139 0
1 -140 -124 0
1 140 -186 0
1 -140 -130 0
1 -140 -127 0
1 140 86 0
1 185 131 0
1 185 -184 0
1 185 -137 0
1 -185 139 0
1 185 122 0
1 185 -149 0
1 -185 -136 0
1 185 -140 0
1 -184 -114 0
1 184 188 0
1 184 150 0
1 -184 -137 0
1 -184 -139 0
1 184 -149 0
1 -124 125 0
1 -124 -129 0
1 124 189 0
1 -124 140 0
1 -125 131 0
1 125 -115 0
1 125 -190 0
1 125 139 0
1 -137 -133 0
1 137 66 0
1 -137 184 0
1 137 -132 0
1 137 -187 0
1 137 128 0
1 137 69 0
1 -137 185 0
1 -137 -186 0
1 137 130 0
1 137 -127 0
1 136 133 0
1 136 184 0
1 -136 -126 0
1 136 137 0
1 -136 -128 0
1 -136 69 0
1 136 185 0
1 136 -186 0
1 -136 84 0
1 -136 -130 0
1 -150 -66 0
1 -150 -95 0
1 150 -187 0
1 -150 191 0
1 -150 -69 0
1 -150 185 0
1 -150 130 0
1 -150 -138 0
1 149 -135 0
1 149 -66 0
1 -149 -184 0
1 149 132 0
1 149 -150 0
1 -149 -192 0
1 149 69 0
1 149 -185 0
1 -149 -130 0
1 149 138 0
1 130 147 0
1 -130 150 0
1 -130 -187 0
1 -130 137 0
1 -130 139 0
1 -130 193 0
1 130 -146 0
1 -130 -149 0
1 130 119 0
1 -130 -136 0
1 187 -157 0
1 187 -147 0
1 187 150 0
1 187 194 0
1 -187 137 0
1 187 -193 0
1 -187 160 0
1 187 -149 0
1 187 -136 0
1 -186 195 0
1 -186 121 0
1 -186 -193 0
1 -186 -196 0
1 186 -136 0
1 -186 140 0
1 -132 -195 0
1 132 117 0
1 -132 150 0
1 132 137 0
1 -132 186 0
1 132 -193 0
1 132 136 0
1 -147 66 0
1 147 63 0
1 -147 141 0
1 -147 -191 0
1 147 -69 0
1 -147 -143 0
1 -147 146 0
1 -146 135 0
1 -146 -66 0
1 146 -141 0
1 -146 -191 0
1 146 -192 0
1 -146 69 0
1 146 -143 0
1 146 90 0
1 -146 130 0
1 -146 138 0
1 -157 -197 0
1 -157 105 0
1 -157 -187 0
1 -157 191 0
1 157 192 0
1 -157 -151 0
1 -157 -143 0
1 157 130 0
1 -160 -135 0
1 160 197 0
1 -160 157 0
1 160 187 0
1 -160 -191 0
1 160 192 0
1 160 151 0
1 160 -148 0
1 160 130 0
1 -160 -138 0
1 135 -198 0
1 -135 -156 0
1 135 -157 0
1 -135 147 0
1 -135 -199 0
1 -135 166 0
1 -135 -154 0
1 -135 160 0
1 135 -146 0
1 -135 149 0
1 -192 -135 0
1 192 -156 0
1 -192 157 0
1 192 147 0
1 -192 150 0
1 -192 199 0
1 -192 -166 0
1 192 200 0
1 -192 160 0
1 -192 149 0
1 138 -201 0
1 138 -202 0
1 -138 -195 0
1 -138 -157 0
1 138 -191 0
1 -138 -193 0
1 138 -149 0
1 -138 127 0
1 191 202 0
1 -191 203 0
1 -191 195 0
1 191 157 0
1 -191 -150 0
1 191 -126 0
1 191 199 0
1 191 -204 0
1 191 193 0
1 -191 -160 0
1 191 -149 0
1 -156 -135 0
1 -156 98 0
1 156 197 0
1 156 195 0
1 -156 -141 0
1 -156 145 0
1 -156 142 0
1 -156 152 0
1 156 -151 0
1 156 154 0
1 156 148 0
1 -156 144 0
1 154 -197 0
1 -154 -156 0
1 -154 145 0
1 154 -141 0
1 -154 -192 0
1 -154 99 0
1 154 151 0
1 154 -144 0
1 154 87 0
1 164 135 0
1 -164 110 0
1 164 -203 0
1 -164 -197 0
1 -164 -145 0
1 164 -158 0
1 164 152 0
1 -164 192 0
1 164 166 0
1 164 151 0
1 164 159 0
1 -166 145 0
1 -166 -158 0
1 -166 -153 0
1 -166 -152 0
1 166 -151 0
1 -166 148 0
1 166 -159 0
1 166 -87 0
1 -145 162 0
1 145 -156 0
1 -145 63 0
1 -145 -157 0
1 -145 -205 0
1 145 -175 0
1 145 -166 0
1 145 -160 0
1 -145 176 0
1 -148 145 0
1 148 -157 0
1 148 -166 0
1 148 -154 0
1 -148 160 0
1 197 206 0
1 197 202 0
1 -197 -164 0
1 -197 66 0
1 197 -156 0
1 197 157 0
1 197 -166 0
1 197 -151 0
1 -197 154 0
1 -151 206 0
1 -151 202 0
1 -151 164 0
1 -151 -197 0
1 151 156 0
1 -151 -157 0
1 151 205 0
1 -151 -199 0
1 162 -107 0
1 -162 -145 0
1 162 -158 0
1 -162 -153 0
1 162 -152 0
1 162 -82 0
1 162 -94 0
1 -162 148 0
1 -162 159 0
1 -162 155 0
1 -162 87 0
1 163 162 0
1 -163 152 0
1 -163 -82 0
1 -163 199 0
1 163 -159 0
1 -163 155 0
1 -163 87 0
1 -163 161 0
1 176 -145 0
1 -176 -158 0
1 -176 -175 0
1 176 94 0
1 176 -148 0
1 176 -159 0
1 -176 -207 0
1 176 161 0
1 -175 -145 0
1 -175 -153 0
1 -175 176 0
1 175 165 0
1 -175 -171 0
1 175 -208 0
1 -175 -94 0
1 -175 148 0
1 175 159 0
1 175 167 0
1 -175 -207 0
1 175 161 0
1 -153 163 0
1 -153 -166 0
1 153 183 0
1 -153 -176 0
1 155 162 0
1 155 -164 0
1 -155 -182 0
1 155 175 0
1 -155 -163 0
1 -155 -144 0
1 -155 183 0
1 -155 172 0
1 158 164 0
1 158 175 0
1 158 -163 0
1 158 166 0
1 -158 -176 0
1 159 162 0
1 -159 164 0
1 159 -163 0
1 -159 -166 0
1 159 143 0
1 -159 -176 0
1 -172 -153 0
1 -172 174 0
1 172 -208 0
1 -172 -89 0
1 -172 167 0
1 172 181 0
1 -172 -207 0
1 172 -161 0
1 -174 91 0
1 174 168 0
1 174 165 0
1 174 -205 0
1 -174 208 0
1 174 -94 0
1 174 -207 0
1 174 172 0
1 -174 161 0
1 183 168 0
1 -183 182 0
1 -183 -153 0
1 -183 165 0
1 -183 -208 0
1 183 -155 0
1 -183 167 0
1 -183 -207 0
1 182 168 0
1 182 178 0
1 -182 153 0
1 -182 209 0
1 -182 167 0
1 -182 169 0
1 182 -155 0
1 -208 -82 0
1 -208 207 0
1 208 183 0
1 208 172 0
1 207 -182 0
1 207 175 0
1 -207 -208 0
1 207 -83 0
1 207 -176 0
1 165 182 0
1 -165 -183 0
1 -165 172 0
1 -167 182 0
1 167 174 0
1 -167 165 0
1 167 175 0
1 167 172 0
1 195 -156 0
1 195 190 0
1 -195 -187 0
1 195 193 0
1 195 -189 0
1 -195 -186 0
1 193 -195 0
1 193 -187 0
1 -193 -154 0
1 -193 -189 0
1 -193 210 0
1 -193 186 0
1 -193 130 0
1 -193 -138 0
1 203 -194 0
1 203 191 0
1 203 189 0
1 -203 210 0
1 203 211 0
1 204 188 0
1 -204 212 0
1 204 -194 0
1 -204 191 0
1 204 -189 0
1 -204 210 0
1 -204 196 0
1 204 211 0
1 -210 -206 0
1 210 202 0
1 210 203 0
1 -210 -188 0
1 210 213 0
1 -210 -199 0
1 -210 -204 0
1 210 193 0
1 188 206 0
1 -188 203 0
1 -188 -195 0
1 -188 -184 0
1 188 213 0
1 -188 -193 0
1 -189 -193 0
1 189 124 0
1 190 203 0
1 -190 195 0
1 -190 189 0
1 -190 -204 0
1 -202 162 0
1 202 135 0
1 -202 188 0
1 -202 212 0
1 -202 194 0
1 202 -191 0
1 -202 199 0
1 -202 151 0
1 202 -210 0
1 -202 -211 0
1 -202 138 0
1 -199 -135 0
1 -199 -202 0
1 -199 188 0
1 199 -194 0
1 199 192 0
1 -199 -196 0
1 199 -211 0
1 199 -138 0
1 -206 201 0
1 206 -188 0
1 206 213 0
1 -206 -214 0
1 206 200 0
1 -206 -210 0
1 -206 -211 0
1 206 176 0
1 213 206 0
1 213 -201 0
1 -213 -198 0
1 213 197 0
1 -213 188 0
1 -213 -212 0
1 -213 175 0
1 -213 -214 0
1 213 -200 0
1 -213 -196 0
1 213 211 0
1 -211 202 0
1 211 203 0
1 -211 -194 0
1 211 213 0
1 -211 -130 0
1 -194 -206 0
1 -194 203 0
1 194 213 0
1 -194 204 0
1 196 202 0
1 -196 -212 0
1 196 213 0
1 -196 199 0
1 -212 -202 0
1 212 -203 0
1 -212 132 0
1 -212 213 0
1 205 201 0
1 205 -198 0
1 205 -158 0
1 205 -194 0
1 205 214 0
1 -215 198 0
1 -215 -158 0
1 -215 -209 0
1 -215 -200 0
1 215 211 0
1 -209 -198 0
1 -209 182 0
1 -209 200 0
1 209 215 0
1 -209 211 0
1 198 135 0
1 198 209 0
1 -198 -205 0
1 -198 -215 0
1 -200 206 0
1 -200 198 0
1 200 -209 0
1 200 205 0
1 -200 -215 0
1 -201 -138 0
1 214 -206 0
1 214 209 0
1 -214 205 0
1 214 -191 0
1 214 213 0
1 -214 215 0
